datasets/2-dimensional/CL_07_25_09.vbp
2
150 150 
25
32 30 30
74 70 72
67 68 4
30 21 88
87 96 54
69 77 64
74 78 90
66 69 26
36 31 94
82 81 28
89 87 72
47 51 49
55 50 54
77 72 19
24 18 28
73 65 61
29 21 84
44 50 23
55 45 67
27 18 53
30 28 54
82 92 16
68 59 9
60 52 54
74 64 77
