datasets/2-dimensional-benchmark/CL_07_25_09.txt
150 150 
0 30 32 30 
1 72 74 70 
2 4 67 68 
3 88 30 21 
4 54 87 96 
5 64 69 77 
6 90 74 78 
7 26 66 69 
8 94 36 31 
9 28 82 81 
10 72 89 87 
11 49 47 51 
12 54 55 50 
13 19 77 72 
14 28 24 18 
15 61 73 65 
16 84 29 21 
17 23 44 50 
18 67 55 45 
19 53 27 18 
20 54 30 28 
21 16 82 92 
22 9 68 59 
23 54 60 52 
24 77 74 64 
